TYPE : Vertex Cover
DIMENSION: 36
EDGE_DATA_SECTION:
0 3
0 7
0 13
0 16
0 20
0 25
0 27
0 31
1 11
1 13
1 14
1 16
1 17
1 19
1 20
1 26
1 27
1 32
1 34
1 35
2 4
2 9
2 10
2 14
2 15
2 18
2 19
2 20
2 32
3 10
3 11
3 20
3 21
3 22
3 23
3 26
3 27
3 29
3 30
3 31
3 33
3 35
4 14
4 16
4 20
5 11
5 22
5 30
5 32
6 9
6 25
7 13
7 18
7 19
7 22
7 30
7 34
8 10
8 25
8 30
8 31
8 34
9 21
9 26
9 31
9 32
10 15
10 18
10 22
10 24
10 25
10 28
10 29
10 34
10 35
11 12
11 13
11 14
11 25
11 28
11 29
11 32
12 15
12 18
12 19
12 24
12 25
12 26
13 14
13 17
13 29
14 17
14 22
14 26
14 29
14 35
15 23
15 24
15 26
15 27
16 17
16 18
16 19
16 22
16 28
16 34
17 18
17 20
17 31
18 22
18 26
18 29
18 35
19 20
19 21
19 24
19 25
20 23
20 26
20 28
20 29
20 32
21 23
21 24
21 30
22 23
22 25
22 31
22 33
23 27
23 29
24 25
24 28
25 28
25 30
25 34
25 35
26 32
27 29
27 32
27 33
27 34
27 35
28 33
29 34
29 35
30 32
30 33
30 34
31 32
32 34
-1
VERTEX_DEGREE:
8.0 12.0 9.0 14.0 4.0 4.0 2.0 7.0 5.0 6.0 12.0 10.0 7.0 7.0 10.0 7.0 9.0 7.0 10.0 9.0 12.0 6.0 11.0 7.0 7.0 13.0 9.0 10.0 7.0 11.0 9.0 7.0 11.0 5.0 10.0 8.0
VERTEX_COVER:
0 1 2 3 4 8 9 11 13 15 17 18 19 22 23 24 25 26 28 29 30 32 33 34 35
EOF
